(set-logic QF_S)
(declare-fun var0 () String)
(declare-fun var1 () Int)
(declare-fun var2 () Bool)
(declare-fun var3 () String)
(declare-fun var4 () Int)
(declare-fun var5 () Bool)
(declare-fun var6 () String)
(declare-fun var7 () Int)
(declare-fun var8 () Bool)
(assert (not var2))
(assert (str.contains (str.replace var3 var0 var3) (str.replace var0 var3 var0)))
(assert (str.suffixof (str.substr (str.replace var6 var0 var6) (str.len var0) (str.indexof var0 var6 var4)) (str.substr (str.at "(P|wVB`OI(" var7) (str.len var6) (str.indexof "\\g,GRQ&Es'" var3 var4))))
(assert (str.prefixof var0 var3))
(check-sat)